(set-info :category "industrial")
(set-info :status sat)
(declare-fun x00 () (_ BitVec 8))
(declare-fun x01 () (_ BitVec 8))
(declare-fun x02 () (_ BitVec 8))
(declare-fun x03 () (_ BitVec 8))
(declare-fun x05 () (_ BitVec 8))
(declare-fun x06 () (_ BitVec 8))
(declare-fun x07 () (_ BitVec 8))
(declare-fun x08 () (_ BitVec 8))
(declare-fun x10 () (_ BitVec 8))
(declare-fun x12 () (_ BitVec 8))
(declare-fun x14 () (_ BitVec 8))
(declare-fun x16 () (_ BitVec 8))
(declare-fun x18 () (_ BitVec 8))
(declare-fun x23 () (_ BitVec 8))
(declare-fun x26 () (_ BitVec 8))
(declare-fun x27 () (_ BitVec 8))
(declare-fun x28 () (_ BitVec 8))
(declare-fun x30 () (_ BitVec 8))
(declare-fun x33 () (_ BitVec 8))
(declare-fun x35 () (_ BitVec 8))
(declare-fun x36 () (_ BitVec 8))
(declare-fun x41 () (_ BitVec 8))
(declare-fun x43 () (_ BitVec 8))
(declare-fun x44 () (_ BitVec 8))
(declare-fun x45 () (_ BitVec 8))
(declare-fun x47 () (_ BitVec 8))
(declare-fun x50 () (_ BitVec 8))
(declare-fun x51 () (_ BitVec 8))
(declare-fun x53 () (_ BitVec 8))
(declare-fun x54 () (_ BitVec 8))
(declare-fun x56 () (_ BitVec 8))
(declare-fun x57 () (_ BitVec 8))
(declare-fun x60 () (_ BitVec 8))
(declare-fun x61 () (_ BitVec 8))
(declare-fun x64 () (_ BitVec 8))
(declare-fun x67 () (_ BitVec 8))
(declare-fun x70 () (_ BitVec 8))
(declare-fun x72 () (_ BitVec 8))
(declare-fun x73 () (_ BitVec 8))
(declare-fun x74 () (_ BitVec 8))
(declare-fun x75 () (_ BitVec 8))
(declare-fun x76 () (_ BitVec 8))
(declare-fun x78 () (_ BitVec 8))
(declare-fun x80 () (_ BitVec 8))
(declare-fun x81 () (_ BitVec 8))
(declare-fun x83 () (_ BitVec 8))
(declare-fun x87 () (_ BitVec 8))
(assert (bvult x00 (_ bv9 8)))
(assert (bvult x01 (_ bv9 8)))
(assert (bvult x02 (_ bv9 8)))
(assert (bvult x03 (_ bv9 8)))
(assert (bvult x05 (_ bv9 8)))
(assert (bvult x06 (_ bv9 8)))
(assert (bvult x07 (_ bv9 8)))
(assert (bvult x08 (_ bv9 8)))
(assert (bvult x10 (_ bv9 8)))
(assert (bvult x12 (_ bv9 8)))
(assert (bvult x14 (_ bv9 8)))
(assert (bvult x16 (_ bv9 8)))
(assert (bvult x18 (_ bv9 8)))
(assert (bvult x23 (_ bv9 8)))
(assert (bvult x26 (_ bv9 8)))
(assert (bvult x27 (_ bv9 8)))
(assert (bvult x28 (_ bv9 8)))
(assert (bvult x30 (_ bv9 8)))
(assert (bvult x33 (_ bv9 8)))
(assert (bvult x35 (_ bv9 8)))
(assert (bvult x36 (_ bv9 8)))
(assert (bvult x41 (_ bv9 8)))
(assert (bvult x43 (_ bv9 8)))
(assert (bvult x44 (_ bv9 8)))
(assert (bvult x45 (_ bv9 8)))
(assert (bvult x47 (_ bv9 8)))
(assert (bvult x50 (_ bv9 8)))
(assert (bvult x51 (_ bv9 8)))
(assert (bvult x53 (_ bv9 8)))
(assert (bvult x54 (_ bv9 8)))
(assert (bvult x56 (_ bv9 8)))
(assert (bvult x57 (_ bv9 8)))
(assert (bvult x60 (_ bv9 8)))
(assert (bvult x61 (_ bv9 8)))
(assert (bvult x64 (_ bv9 8)))
(assert (bvult x67 (_ bv9 8)))
(assert (bvult x70 (_ bv9 8)))
(assert (bvult x72 (_ bv9 8)))
(assert (bvult x73 (_ bv9 8)))
(assert (bvult x74 (_ bv9 8)))
(assert (bvult x75 (_ bv9 8)))
(assert (bvult x76 (_ bv9 8)))
(assert (bvult x78 (_ bv9 8)))
(assert (bvult x80 (_ bv9 8)))
(assert (bvult x81 (_ bv9 8)))
(assert (bvult x83 (_ bv9 8)))
(assert (bvult x87 (_ bv9 8)))
(assert (not (= x00 x01)))
(assert (not (= x00 x02)))
(assert (not (= x00 x03)))
(assert (not (= x00 (_ bv5 8))))
(assert (not (= x00 x05)))
(assert (not (= x00 x06)))
(assert (not (= x00 x07)))
(assert (not (= x00 x08)))
(assert (not (= x01 x02)))
(assert (not (= x01 x03)))
(assert (not (= x01 (_ bv5 8))))
(assert (not (= x01 x05)))
(assert (not (= x01 x06)))
(assert (not (= x01 x07)))
(assert (not (= x01 x08)))
(assert (not (= x02 x03)))
(assert (not (= x02 (_ bv5 8))))
(assert (not (= x02 x05)))
(assert (not (= x02 x06)))
(assert (not (= x02 x07)))
(assert (not (= x02 x08)))
(assert (not (= x03 (_ bv5 8))))
(assert (not (= x03 x05)))
(assert (not (= x03 x06)))
(assert (not (= x03 x07)))
(assert (not (= x03 x08)))
(assert (not (= (_ bv5 8) x05)))
(assert (not (= (_ bv5 8) x06)))
(assert (not (= (_ bv5 8) x07)))
(assert (not (= (_ bv5 8) x08)))
(assert (not (= x05 x06)))
(assert (not (= x05 x07)))
(assert (not (= x05 x08)))
(assert (not (= x06 x07)))
(assert (not (= x06 x08)))
(assert (not (= x07 x08)))
(assert (not (= x10 (_ bv4 8))))
(assert (not (= x10 x12)))
(assert (not (= x10 (_ bv8 8))))
(assert (not (= x10 x14)))
(assert (not (= x10 (_ bv9 8))))
(assert (not (= x10 x16)))
(assert (not (= x10 (_ bv2 8))))
(assert (not (= x10 x18)))
(assert (not (= (_ bv4 8) x12)))
(assert (not (= (_ bv4 8) (_ bv8 8))))
(assert (not (= (_ bv4 8) x14)))
(assert (not (= (_ bv4 8) (_ bv9 8))))
(assert (not (= (_ bv4 8) x16)))
(assert (not (= (_ bv4 8) (_ bv2 8))))
(assert (not (= (_ bv4 8) x18)))
(assert (not (= x12 (_ bv8 8))))
(assert (not (= x12 x14)))
(assert (not (= x12 (_ bv9 8))))
(assert (not (= x12 x16)))
(assert (not (= x12 (_ bv2 8))))
(assert (not (= x12 x18)))
(assert (not (= (_ bv8 8) x14)))
(assert (not (= (_ bv8 8) (_ bv9 8))))
(assert (not (= (_ bv8 8) x16)))
(assert (not (= (_ bv8 8) (_ bv2 8))))
(assert (not (= (_ bv8 8) x18)))
(assert (not (= x14 (_ bv9 8))))
(assert (not (= x14 x16)))
(assert (not (= x14 (_ bv2 8))))
(assert (not (= x14 x18)))
(assert (not (= (_ bv9 8) x16)))
(assert (not (= (_ bv9 8) (_ bv2 8))))
(assert (not (= (_ bv9 8) x18)))
(assert (not (= x16 (_ bv2 8))))
(assert (not (= x16 x18)))
(assert (not (= (_ bv2 8) x18)))
(assert (not (= (_ bv9 8) (_ bv2 8))))
(assert (not (= (_ bv9 8) (_ bv7 8))))
(assert (not (= (_ bv9 8) x23)))
(assert (not (= (_ bv9 8) (_ bv3 8))))
(assert (not (= (_ bv9 8) (_ bv1 8))))
(assert (not (= (_ bv9 8) x26)))
(assert (not (= (_ bv9 8) x27)))
(assert (not (= (_ bv9 8) x28)))
(assert (not (= (_ bv2 8) (_ bv7 8))))
(assert (not (= (_ bv2 8) x23)))
(assert (not (= (_ bv2 8) (_ bv3 8))))
(assert (not (= (_ bv2 8) (_ bv1 8))))
(assert (not (= (_ bv2 8) x26)))
(assert (not (= (_ bv2 8) x27)))
(assert (not (= (_ bv2 8) x28)))
(assert (not (= (_ bv7 8) x23)))
(assert (not (= (_ bv7 8) (_ bv3 8))))
(assert (not (= (_ bv7 8) (_ bv1 8))))
(assert (not (= (_ bv7 8) x26)))
(assert (not (= (_ bv7 8) x27)))
(assert (not (= (_ bv7 8) x28)))
(assert (not (= x23 (_ bv3 8))))
(assert (not (= x23 (_ bv1 8))))
(assert (not (= x23 x26)))
(assert (not (= x23 x27)))
(assert (not (= x23 x28)))
(assert (not (= (_ bv3 8) (_ bv1 8))))
(assert (not (= (_ bv3 8) x26)))
(assert (not (= (_ bv3 8) x27)))
(assert (not (= (_ bv3 8) x28)))
(assert (not (= (_ bv1 8) x26)))
(assert (not (= (_ bv1 8) x27)))
(assert (not (= (_ bv1 8) x28)))
(assert (not (= x26 x27)))
(assert (not (= x26 x28)))
(assert (not (= x27 x28)))
(assert (not (= x30 (_ bv7 8))))
(assert (not (= x30 (_ bv2 8))))
(assert (not (= x30 x33)))
(assert (not (= x30 (_ bv4 8))))
(assert (not (= x30 x35)))
(assert (not (= x30 x36)))
(assert (not (= x30 (_ bv1 8))))
(assert (not (= x30 (_ bv3 8))))
(assert (not (= (_ bv7 8) (_ bv2 8))))
(assert (not (= (_ bv7 8) x33)))
(assert (not (= (_ bv7 8) (_ bv4 8))))
(assert (not (= (_ bv7 8) x35)))
(assert (not (= (_ bv7 8) x36)))
(assert (not (= (_ bv7 8) (_ bv1 8))))
(assert (not (= (_ bv7 8) (_ bv3 8))))
(assert (not (= (_ bv2 8) x33)))
(assert (not (= (_ bv2 8) (_ bv4 8))))
(assert (not (= (_ bv2 8) x35)))
(assert (not (= (_ bv2 8) x36)))
(assert (not (= (_ bv2 8) (_ bv1 8))))
(assert (not (= (_ bv2 8) (_ bv3 8))))
(assert (not (= x33 (_ bv4 8))))
(assert (not (= x33 x35)))
(assert (not (= x33 x36)))
(assert (not (= x33 (_ bv1 8))))
(assert (not (= x33 (_ bv3 8))))
(assert (not (= (_ bv4 8) x35)))
(assert (not (= (_ bv4 8) x36)))
(assert (not (= (_ bv4 8) (_ bv1 8))))
(assert (not (= (_ bv4 8) (_ bv3 8))))
(assert (not (= x35 x36)))
(assert (not (= x35 (_ bv1 8))))
(assert (not (= x35 (_ bv3 8))))
(assert (not (= x36 (_ bv1 8))))
(assert (not (= x36 (_ bv3 8))))
(assert (not (= (_ bv1 8) (_ bv3 8))))
(assert (not (= (_ bv8 8) x41)))
(assert (not (= (_ bv8 8) (_ bv5 8))))
(assert (not (= (_ bv8 8) x43)))
(assert (not (= (_ bv8 8) x44)))
(assert (not (= (_ bv8 8) x45)))
(assert (not (= (_ bv8 8) (_ bv7 8))))
(assert (not (= (_ bv8 8) x47)))
(assert (not (= (_ bv8 8) (_ bv9 8))))
(assert (not (= x41 (_ bv5 8))))
(assert (not (= x41 x43)))
(assert (not (= x41 x44)))
(assert (not (= x41 x45)))
(assert (not (= x41 (_ bv7 8))))
(assert (not (= x41 x47)))
(assert (not (= x41 (_ bv9 8))))
(assert (not (= (_ bv5 8) x43)))
(assert (not (= (_ bv5 8) x44)))
(assert (not (= (_ bv5 8) x45)))
(assert (not (= (_ bv5 8) (_ bv7 8))))
(assert (not (= (_ bv5 8) x47)))
(assert (not (= (_ bv5 8) (_ bv9 8))))
(assert (not (= x43 x44)))
(assert (not (= x43 x45)))
(assert (not (= x43 (_ bv7 8))))
(assert (not (= x43 x47)))
(assert (not (= x43 (_ bv9 8))))
(assert (not (= x44 x45)))
(assert (not (= x44 (_ bv7 8))))
(assert (not (= x44 x47)))
(assert (not (= x44 (_ bv9 8))))
(assert (not (= x45 (_ bv7 8))))
(assert (not (= x45 x47)))
(assert (not (= x45 (_ bv9 8))))
(assert (not (= (_ bv7 8) x47)))
(assert (not (= (_ bv7 8) (_ bv9 8))))
(assert (not (= x47 (_ bv9 8))))
(assert (not (= x50 x51)))
(assert (not (= x50 (_ bv4 8))))
(assert (not (= x50 x53)))
(assert (not (= x50 x54)))
(assert (not (= x50 (_ bv8 8))))
(assert (not (= x50 x56)))
(assert (not (= x50 x57)))
(assert (not (= x50 (_ bv6 8))))
(assert (not (= x51 (_ bv4 8))))
(assert (not (= x51 x53)))
(assert (not (= x51 x54)))
(assert (not (= x51 (_ bv8 8))))
(assert (not (= x51 x56)))
(assert (not (= x51 x57)))
(assert (not (= x51 (_ bv6 8))))
(assert (not (= (_ bv4 8) x53)))
(assert (not (= (_ bv4 8) x54)))
(assert (not (= (_ bv4 8) (_ bv8 8))))
(assert (not (= (_ bv4 8) x56)))
(assert (not (= (_ bv4 8) x57)))
(assert (not (= (_ bv4 8) (_ bv6 8))))
(assert (not (= x53 x54)))
(assert (not (= x53 (_ bv8 8))))
(assert (not (= x53 x56)))
(assert (not (= x53 x57)))
(assert (not (= x53 (_ bv6 8))))
(assert (not (= x54 (_ bv8 8))))
(assert (not (= x54 x56)))
(assert (not (= x54 x57)))
(assert (not (= x54 (_ bv6 8))))
(assert (not (= (_ bv8 8) x56)))
(assert (not (= (_ bv8 8) x57)))
(assert (not (= (_ bv8 8) (_ bv6 8))))
(assert (not (= x56 x57)))
(assert (not (= x56 (_ bv6 8))))
(assert (not (= x57 (_ bv6 8))))
(assert (not (= x60 x61)))
(assert (not (= x60 (_ bv8 8))))
(assert (not (= x60 (_ bv6 8))))
(assert (not (= x60 x64)))
(assert (not (= x60 (_ bv2 8))))
(assert (not (= x60 (_ bv5 8))))
(assert (not (= x60 x67)))
(assert (not (= x60 (_ bv1 8))))
(assert (not (= x61 (_ bv8 8))))
(assert (not (= x61 (_ bv6 8))))
(assert (not (= x61 x64)))
(assert (not (= x61 (_ bv2 8))))
(assert (not (= x61 (_ bv5 8))))
(assert (not (= x61 x67)))
(assert (not (= x61 (_ bv1 8))))
(assert (not (= (_ bv8 8) (_ bv6 8))))
(assert (not (= (_ bv8 8) x64)))
(assert (not (= (_ bv8 8) (_ bv2 8))))
(assert (not (= (_ bv8 8) (_ bv5 8))))
(assert (not (= (_ bv8 8) x67)))
(assert (not (= (_ bv8 8) (_ bv1 8))))
(assert (not (= (_ bv6 8) x64)))
(assert (not (= (_ bv6 8) (_ bv2 8))))
(assert (not (= (_ bv6 8) (_ bv5 8))))
(assert (not (= (_ bv6 8) x67)))
(assert (not (= (_ bv6 8) (_ bv1 8))))
(assert (not (= x64 (_ bv2 8))))
(assert (not (= x64 (_ bv5 8))))
(assert (not (= x64 x67)))
(assert (not (= x64 (_ bv1 8))))
(assert (not (= (_ bv2 8) (_ bv5 8))))
(assert (not (= (_ bv2 8) x67)))
(assert (not (= (_ bv2 8) (_ bv1 8))))
(assert (not (= (_ bv5 8) x67)))
(assert (not (= (_ bv5 8) (_ bv1 8))))
(assert (not (= x67 (_ bv1 8))))
(assert (not (= x70 (_ bv5 8))))
(assert (not (= x70 x72)))
(assert (not (= x70 x73)))
(assert (not (= x70 x74)))
(assert (not (= x70 x75)))
(assert (not (= x70 x76)))
(assert (not (= x70 (_ bv6 8))))
(assert (not (= x70 x78)))
(assert (not (= (_ bv5 8) x72)))
(assert (not (= (_ bv5 8) x73)))
(assert (not (= (_ bv5 8) x74)))
(assert (not (= (_ bv5 8) x75)))
(assert (not (= (_ bv5 8) x76)))
(assert (not (= (_ bv5 8) (_ bv6 8))))
(assert (not (= (_ bv5 8) x78)))
(assert (not (= x72 x73)))
(assert (not (= x72 x74)))
(assert (not (= x72 x75)))
(assert (not (= x72 x76)))
(assert (not (= x72 (_ bv6 8))))
(assert (not (= x72 x78)))
(assert (not (= x73 x74)))
(assert (not (= x73 x75)))
(assert (not (= x73 x76)))
(assert (not (= x73 (_ bv6 8))))
(assert (not (= x73 x78)))
(assert (not (= x74 x75)))
(assert (not (= x74 x76)))
(assert (not (= x74 (_ bv6 8))))
(assert (not (= x74 x78)))
(assert (not (= x75 x76)))
(assert (not (= x75 (_ bv6 8))))
(assert (not (= x75 x78)))
(assert (not (= x76 (_ bv6 8))))
(assert (not (= x76 x78)))
(assert (not (= (_ bv6 8) x78)))
(assert (not (= x80 x81)))
(assert (not (= x80 (_ bv1 8))))
(assert (not (= x80 x83)))
(assert (not (= x80 (_ bv7 8))))
(assert (not (= x80 (_ bv4 8))))
(assert (not (= x80 (_ bv3 8))))
(assert (not (= x80 x87)))
(assert (not (= x80 (_ bv8 8))))
(assert (not (= x81 (_ bv1 8))))
(assert (not (= x81 x83)))
(assert (not (= x81 (_ bv7 8))))
(assert (not (= x81 (_ bv4 8))))
(assert (not (= x81 (_ bv3 8))))
(assert (not (= x81 x87)))
(assert (not (= x81 (_ bv8 8))))
(assert (not (= (_ bv1 8) x83)))
(assert (not (= (_ bv1 8) (_ bv7 8))))
(assert (not (= (_ bv1 8) (_ bv4 8))))
(assert (not (= (_ bv1 8) (_ bv3 8))))
(assert (not (= (_ bv1 8) x87)))
(assert (not (= (_ bv1 8) (_ bv8 8))))
(assert (not (= x83 (_ bv7 8))))
(assert (not (= x83 (_ bv4 8))))
(assert (not (= x83 (_ bv3 8))))
(assert (not (= x83 x87)))
(assert (not (= x83 (_ bv8 8))))
(assert (not (= (_ bv7 8) (_ bv4 8))))
(assert (not (= (_ bv7 8) (_ bv3 8))))
(assert (not (= (_ bv7 8) x87)))
(assert (not (= (_ bv7 8) (_ bv8 8))))
(assert (not (= (_ bv4 8) (_ bv3 8))))
(assert (not (= (_ bv4 8) x87)))
(assert (not (= (_ bv4 8) (_ bv8 8))))
(assert (not (= (_ bv3 8) x87)))
(assert (not (= (_ bv3 8) (_ bv8 8))))
(assert (not (= x87 (_ bv8 8))))
(assert (not (= x00 x10)))
(assert (not (= x00 (_ bv9 8))))
(assert (not (= x00 x30)))
(assert (not (= x00 (_ bv8 8))))
(assert (not (= x00 x50)))
(assert (not (= x00 x60)))
(assert (not (= x00 x70)))
(assert (not (= x00 x80)))
(assert (not (= x10 (_ bv9 8))))
(assert (not (= x10 x30)))
(assert (not (= x10 (_ bv8 8))))
(assert (not (= x10 x50)))
(assert (not (= x10 x60)))
(assert (not (= x10 x70)))
(assert (not (= x10 x80)))
(assert (not (= (_ bv9 8) x30)))
(assert (not (= (_ bv9 8) (_ bv8 8))))
(assert (not (= (_ bv9 8) x50)))
(assert (not (= (_ bv9 8) x60)))
(assert (not (= (_ bv9 8) x70)))
(assert (not (= (_ bv9 8) x80)))
(assert (not (= x30 (_ bv8 8))))
(assert (not (= x30 x50)))
(assert (not (= x30 x60)))
(assert (not (= x30 x70)))
(assert (not (= x30 x80)))
(assert (not (= (_ bv8 8) x50)))
(assert (not (= (_ bv8 8) x60)))
(assert (not (= (_ bv8 8) x70)))
(assert (not (= (_ bv8 8) x80)))
(assert (not (= x50 x60)))
(assert (not (= x50 x70)))
(assert (not (= x50 x80)))
(assert (not (= x60 x70)))
(assert (not (= x60 x80)))
(assert (not (= x70 x80)))
(assert (not (= x01 (_ bv4 8))))
(assert (not (= x01 (_ bv2 8))))
(assert (not (= x01 (_ bv7 8))))
(assert (not (= x01 x41)))
(assert (not (= x01 x51)))
(assert (not (= x01 x61)))
(assert (not (= x01 (_ bv5 8))))
(assert (not (= x01 x81)))
(assert (not (= (_ bv4 8) (_ bv2 8))))
(assert (not (= (_ bv4 8) (_ bv7 8))))
(assert (not (= (_ bv4 8) x41)))
(assert (not (= (_ bv4 8) x51)))
(assert (not (= (_ bv4 8) x61)))
(assert (not (= (_ bv4 8) (_ bv5 8))))
(assert (not (= (_ bv4 8) x81)))
(assert (not (= (_ bv2 8) (_ bv7 8))))
(assert (not (= (_ bv2 8) x41)))
(assert (not (= (_ bv2 8) x51)))
(assert (not (= (_ bv2 8) x61)))
(assert (not (= (_ bv2 8) (_ bv5 8))))
(assert (not (= (_ bv2 8) x81)))
(assert (not (= (_ bv7 8) x41)))
(assert (not (= (_ bv7 8) x51)))
(assert (not (= (_ bv7 8) x61)))
(assert (not (= (_ bv7 8) (_ bv5 8))))
(assert (not (= (_ bv7 8) x81)))
(assert (not (= x41 x51)))
(assert (not (= x41 x61)))
(assert (not (= x41 (_ bv5 8))))
(assert (not (= x41 x81)))
(assert (not (= x51 x61)))
(assert (not (= x51 (_ bv5 8))))
(assert (not (= x51 x81)))
(assert (not (= x61 (_ bv5 8))))
(assert (not (= x61 x81)))
(assert (not (= (_ bv5 8) x81)))
(assert (not (= x02 x12)))
(assert (not (= x02 (_ bv7 8))))
(assert (not (= x02 (_ bv2 8))))
(assert (not (= x02 (_ bv5 8))))
(assert (not (= x02 (_ bv4 8))))
(assert (not (= x02 (_ bv8 8))))
(assert (not (= x02 x72)))
(assert (not (= x02 (_ bv1 8))))
(assert (not (= x12 (_ bv7 8))))
(assert (not (= x12 (_ bv2 8))))
(assert (not (= x12 (_ bv5 8))))
(assert (not (= x12 (_ bv4 8))))
(assert (not (= x12 (_ bv8 8))))
(assert (not (= x12 x72)))
(assert (not (= x12 (_ bv1 8))))
(assert (not (= (_ bv7 8) (_ bv2 8))))
(assert (not (= (_ bv7 8) (_ bv5 8))))
(assert (not (= (_ bv7 8) (_ bv4 8))))
(assert (not (= (_ bv7 8) (_ bv8 8))))
(assert (not (= (_ bv7 8) x72)))
(assert (not (= (_ bv7 8) (_ bv1 8))))
(assert (not (= (_ bv2 8) (_ bv5 8))))
(assert (not (= (_ bv2 8) (_ bv4 8))))
(assert (not (= (_ bv2 8) (_ bv8 8))))
(assert (not (= (_ bv2 8) x72)))
(assert (not (= (_ bv2 8) (_ bv1 8))))
(assert (not (= (_ bv5 8) (_ bv4 8))))
(assert (not (= (_ bv5 8) (_ bv8 8))))
(assert (not (= (_ bv5 8) x72)))
(assert (not (= (_ bv5 8) (_ bv1 8))))
(assert (not (= (_ bv4 8) (_ bv8 8))))
(assert (not (= (_ bv4 8) x72)))
(assert (not (= (_ bv4 8) (_ bv1 8))))
(assert (not (= (_ bv8 8) x72)))
(assert (not (= (_ bv8 8) (_ bv1 8))))
(assert (not (= x72 (_ bv1 8))))
(assert (not (= x03 (_ bv8 8))))
(assert (not (= x03 x23)))
(assert (not (= x03 x33)))
(assert (not (= x03 x43)))
(assert (not (= x03 x53)))
(assert (not (= x03 (_ bv6 8))))
(assert (not (= x03 x73)))
(assert (not (= x03 x83)))
(assert (not (= (_ bv8 8) x23)))
(assert (not (= (_ bv8 8) x33)))
(assert (not (= (_ bv8 8) x43)))
(assert (not (= (_ bv8 8) x53)))
(assert (not (= (_ bv8 8) (_ bv6 8))))
(assert (not (= (_ bv8 8) x73)))
(assert (not (= (_ bv8 8) x83)))
(assert (not (= x23 x33)))
(assert (not (= x23 x43)))
(assert (not (= x23 x53)))
(assert (not (= x23 (_ bv6 8))))
(assert (not (= x23 x73)))
(assert (not (= x23 x83)))
(assert (not (= x33 x43)))
(assert (not (= x33 x53)))
(assert (not (= x33 (_ bv6 8))))
(assert (not (= x33 x73)))
(assert (not (= x33 x83)))
(assert (not (= x43 x53)))
(assert (not (= x43 (_ bv6 8))))
(assert (not (= x43 x73)))
(assert (not (= x43 x83)))
(assert (not (= x53 (_ bv6 8))))
(assert (not (= x53 x73)))
(assert (not (= x53 x83)))
(assert (not (= (_ bv6 8) x73)))
(assert (not (= (_ bv6 8) x83)))
(assert (not (= x73 x83)))
(assert (not (= (_ bv5 8) x14)))
(assert (not (= (_ bv5 8) (_ bv3 8))))
(assert (not (= (_ bv5 8) (_ bv4 8))))
(assert (not (= (_ bv5 8) x44)))
(assert (not (= (_ bv5 8) x54)))
(assert (not (= (_ bv5 8) x64)))
(assert (not (= (_ bv5 8) x74)))
(assert (not (= (_ bv5 8) (_ bv7 8))))
(assert (not (= x14 (_ bv3 8))))
(assert (not (= x14 (_ bv4 8))))
(assert (not (= x14 x44)))
(assert (not (= x14 x54)))
(assert (not (= x14 x64)))
(assert (not (= x14 x74)))
(assert (not (= x14 (_ bv7 8))))
(assert (not (= (_ bv3 8) (_ bv4 8))))
(assert (not (= (_ bv3 8) x44)))
(assert (not (= (_ bv3 8) x54)))
(assert (not (= (_ bv3 8) x64)))
(assert (not (= (_ bv3 8) x74)))
(assert (not (= (_ bv3 8) (_ bv7 8))))
(assert (not (= (_ bv4 8) x44)))
(assert (not (= (_ bv4 8) x54)))
(assert (not (= (_ bv4 8) x64)))
(assert (not (= (_ bv4 8) x74)))
(assert (not (= (_ bv4 8) (_ bv7 8))))
(assert (not (= x44 x54)))
(assert (not (= x44 x64)))
(assert (not (= x44 x74)))
(assert (not (= x44 (_ bv7 8))))
(assert (not (= x54 x64)))
(assert (not (= x54 x74)))
(assert (not (= x54 (_ bv7 8))))
(assert (not (= x64 x74)))
(assert (not (= x64 (_ bv7 8))))
(assert (not (= x74 (_ bv7 8))))
(assert (not (= x05 (_ bv9 8))))
(assert (not (= x05 (_ bv1 8))))
(assert (not (= x05 x35)))
(assert (not (= x05 x45)))
(assert (not (= x05 (_ bv8 8))))
(assert (not (= x05 (_ bv2 8))))
(assert (not (= x05 x75)))
(assert (not (= x05 (_ bv4 8))))
(assert (not (= (_ bv9 8) (_ bv1 8))))
(assert (not (= (_ bv9 8) x35)))
(assert (not (= (_ bv9 8) x45)))
(assert (not (= (_ bv9 8) (_ bv8 8))))
(assert (not (= (_ bv9 8) (_ bv2 8))))
(assert (not (= (_ bv9 8) x75)))
(assert (not (= (_ bv9 8) (_ bv4 8))))
(assert (not (= (_ bv1 8) x35)))
(assert (not (= (_ bv1 8) x45)))
(assert (not (= (_ bv1 8) (_ bv8 8))))
(assert (not (= (_ bv1 8) (_ bv2 8))))
(assert (not (= (_ bv1 8) x75)))
(assert (not (= (_ bv1 8) (_ bv4 8))))
(assert (not (= x35 x45)))
(assert (not (= x35 (_ bv8 8))))
(assert (not (= x35 (_ bv2 8))))
(assert (not (= x35 x75)))
(assert (not (= x35 (_ bv4 8))))
(assert (not (= x45 (_ bv8 8))))
(assert (not (= x45 (_ bv2 8))))
(assert (not (= x45 x75)))
(assert (not (= x45 (_ bv4 8))))
(assert (not (= (_ bv8 8) (_ bv2 8))))
(assert (not (= (_ bv8 8) x75)))
(assert (not (= (_ bv8 8) (_ bv4 8))))
(assert (not (= (_ bv2 8) x75)))
(assert (not (= (_ bv2 8) (_ bv4 8))))
(assert (not (= x75 (_ bv4 8))))
(assert (not (= x06 x16)))
(assert (not (= x06 x26)))
(assert (not (= x06 x36)))
(assert (not (= x06 (_ bv7 8))))
(assert (not (= x06 x56)))
(assert (not (= x06 (_ bv5 8))))
(assert (not (= x06 x76)))
(assert (not (= x06 (_ bv3 8))))
(assert (not (= x16 x26)))
(assert (not (= x16 x36)))
(assert (not (= x16 (_ bv7 8))))
(assert (not (= x16 x56)))
(assert (not (= x16 (_ bv5 8))))
(assert (not (= x16 x76)))
(assert (not (= x16 (_ bv3 8))))
(assert (not (= x26 x36)))
(assert (not (= x26 (_ bv7 8))))
(assert (not (= x26 x56)))
(assert (not (= x26 (_ bv5 8))))
(assert (not (= x26 x76)))
(assert (not (= x26 (_ bv3 8))))
(assert (not (= x36 (_ bv7 8))))
(assert (not (= x36 x56)))
(assert (not (= x36 (_ bv5 8))))
(assert (not (= x36 x76)))
(assert (not (= x36 (_ bv3 8))))
(assert (not (= (_ bv7 8) x56)))
(assert (not (= (_ bv7 8) (_ bv5 8))))
(assert (not (= (_ bv7 8) x76)))
(assert (not (= (_ bv7 8) (_ bv3 8))))
(assert (not (= x56 (_ bv5 8))))
(assert (not (= x56 x76)))
(assert (not (= x56 (_ bv3 8))))
(assert (not (= (_ bv5 8) x76)))
(assert (not (= (_ bv5 8) (_ bv3 8))))
(assert (not (= x76 (_ bv3 8))))
(assert (not (= x07 (_ bv2 8))))
(assert (not (= x07 x27)))
(assert (not (= x07 (_ bv1 8))))
(assert (not (= x07 x47)))
(assert (not (= x07 x57)))
(assert (not (= x07 x67)))
(assert (not (= x07 (_ bv6 8))))
(assert (not (= x07 x87)))
(assert (not (= (_ bv2 8) x27)))
(assert (not (= (_ bv2 8) (_ bv1 8))))
(assert (not (= (_ bv2 8) x47)))
(assert (not (= (_ bv2 8) x57)))
(assert (not (= (_ bv2 8) x67)))
(assert (not (= (_ bv2 8) (_ bv6 8))))
(assert (not (= (_ bv2 8) x87)))
(assert (not (= x27 (_ bv1 8))))
(assert (not (= x27 x47)))
(assert (not (= x27 x57)))
(assert (not (= x27 x67)))
(assert (not (= x27 (_ bv6 8))))
(assert (not (= x27 x87)))
(assert (not (= (_ bv1 8) x47)))
(assert (not (= (_ bv1 8) x57)))
(assert (not (= (_ bv1 8) x67)))
(assert (not (= (_ bv1 8) (_ bv6 8))))
(assert (not (= (_ bv1 8) x87)))
(assert (not (= x47 x57)))
(assert (not (= x47 x67)))
(assert (not (= x47 (_ bv6 8))))
(assert (not (= x47 x87)))
(assert (not (= x57 x67)))
(assert (not (= x57 (_ bv6 8))))
(assert (not (= x57 x87)))
(assert (not (= x67 (_ bv6 8))))
(assert (not (= x67 x87)))
(assert (not (= (_ bv6 8) x87)))
(assert (not (= x08 x18)))
(assert (not (= x08 x28)))
(assert (not (= x08 (_ bv3 8))))
(assert (not (= x08 (_ bv9 8))))
(assert (not (= x08 (_ bv6 8))))
(assert (not (= x08 (_ bv1 8))))
(assert (not (= x08 x78)))
(assert (not (= x08 (_ bv8 8))))
(assert (not (= x18 x28)))
(assert (not (= x18 (_ bv3 8))))
(assert (not (= x18 (_ bv9 8))))
(assert (not (= x18 (_ bv6 8))))
(assert (not (= x18 (_ bv1 8))))
(assert (not (= x18 x78)))
(assert (not (= x18 (_ bv8 8))))
(assert (not (= x28 (_ bv3 8))))
(assert (not (= x28 (_ bv9 8))))
(assert (not (= x28 (_ bv6 8))))
(assert (not (= x28 (_ bv1 8))))
(assert (not (= x28 x78)))
(assert (not (= x28 (_ bv8 8))))
(assert (not (= (_ bv3 8) (_ bv9 8))))
(assert (not (= (_ bv3 8) (_ bv6 8))))
(assert (not (= (_ bv3 8) (_ bv1 8))))
(assert (not (= (_ bv3 8) x78)))
(assert (not (= (_ bv3 8) (_ bv8 8))))
(assert (not (= (_ bv9 8) (_ bv6 8))))
(assert (not (= (_ bv9 8) (_ bv1 8))))
(assert (not (= (_ bv9 8) x78)))
(assert (not (= (_ bv9 8) (_ bv8 8))))
(assert (not (= (_ bv6 8) (_ bv1 8))))
(assert (not (= (_ bv6 8) x78)))
(assert (not (= (_ bv6 8) (_ bv8 8))))
(assert (not (= (_ bv1 8) x78)))
(assert (not (= (_ bv1 8) (_ bv8 8))))
(assert (not (= x78 (_ bv8 8))))
(assert (not (= x00 x01)))
(assert (not (= x00 x02)))
(assert (not (= x00 x10)))
(assert (not (= x00 (_ bv4 8))))
(assert (not (= x00 x12)))
(assert (not (= x00 (_ bv9 8))))
(assert (not (= x00 (_ bv2 8))))
(assert (not (= x00 (_ bv7 8))))
(assert (not (= x01 x02)))
(assert (not (= x01 x10)))
(assert (not (= x01 (_ bv4 8))))
(assert (not (= x01 x12)))
(assert (not (= x01 (_ bv9 8))))
(assert (not (= x01 (_ bv2 8))))
(assert (not (= x01 (_ bv7 8))))
(assert (not (= x02 x10)))
(assert (not (= x02 (_ bv4 8))))
(assert (not (= x02 x12)))
(assert (not (= x02 (_ bv9 8))))
(assert (not (= x02 (_ bv2 8))))
(assert (not (= x02 (_ bv7 8))))
(assert (not (= x10 (_ bv4 8))))
(assert (not (= x10 x12)))
(assert (not (= x10 (_ bv9 8))))
(assert (not (= x10 (_ bv2 8))))
(assert (not (= x10 (_ bv7 8))))
(assert (not (= (_ bv4 8) x12)))
(assert (not (= (_ bv4 8) (_ bv9 8))))
(assert (not (= (_ bv4 8) (_ bv2 8))))
(assert (not (= (_ bv4 8) (_ bv7 8))))
(assert (not (= x12 (_ bv9 8))))
(assert (not (= x12 (_ bv2 8))))
(assert (not (= x12 (_ bv7 8))))
(assert (not (= (_ bv9 8) (_ bv2 8))))
(assert (not (= (_ bv9 8) (_ bv7 8))))
(assert (not (= (_ bv2 8) (_ bv7 8))))
(assert (not (= x03 (_ bv5 8))))
(assert (not (= x03 x05)))
(assert (not (= x03 (_ bv8 8))))
(assert (not (= x03 x14)))
(assert (not (= x03 (_ bv9 8))))
(assert (not (= x03 x23)))
(assert (not (= x03 (_ bv3 8))))
(assert (not (= x03 (_ bv1 8))))
(assert (not (= (_ bv5 8) x05)))
(assert (not (= (_ bv5 8) (_ bv8 8))))
(assert (not (= (_ bv5 8) x14)))
(assert (not (= (_ bv5 8) (_ bv9 8))))
(assert (not (= (_ bv5 8) x23)))
(assert (not (= (_ bv5 8) (_ bv3 8))))
(assert (not (= (_ bv5 8) (_ bv1 8))))
(assert (not (= x05 (_ bv8 8))))
(assert (not (= x05 x14)))
(assert (not (= x05 (_ bv9 8))))
(assert (not (= x05 x23)))
(assert (not (= x05 (_ bv3 8))))
(assert (not (= x05 (_ bv1 8))))
(assert (not (= (_ bv8 8) x14)))
(assert (not (= (_ bv8 8) (_ bv9 8))))
(assert (not (= (_ bv8 8) x23)))
(assert (not (= (_ bv8 8) (_ bv3 8))))
(assert (not (= (_ bv8 8) (_ bv1 8))))
(assert (not (= x14 (_ bv9 8))))
(assert (not (= x14 x23)))
(assert (not (= x14 (_ bv3 8))))
(assert (not (= x14 (_ bv1 8))))
(assert (not (= (_ bv9 8) x23)))
(assert (not (= (_ bv9 8) (_ bv3 8))))
(assert (not (= (_ bv9 8) (_ bv1 8))))
(assert (not (= x23 (_ bv3 8))))
(assert (not (= x23 (_ bv1 8))))
(assert (not (= (_ bv3 8) (_ bv1 8))))
(assert (not (= x06 x07)))
(assert (not (= x06 x08)))
(assert (not (= x06 x16)))
(assert (not (= x06 (_ bv2 8))))
(assert (not (= x06 x18)))
(assert (not (= x06 x26)))
(assert (not (= x06 x27)))
(assert (not (= x06 x28)))
(assert (not (= x07 x08)))
(assert (not (= x07 x16)))
(assert (not (= x07 (_ bv2 8))))
(assert (not (= x07 x18)))
(assert (not (= x07 x26)))
(assert (not (= x07 x27)))
(assert (not (= x07 x28)))
(assert (not (= x08 x16)))
(assert (not (= x08 (_ bv2 8))))
(assert (not (= x08 x18)))
(assert (not (= x08 x26)))
(assert (not (= x08 x27)))
(assert (not (= x08 x28)))
(assert (not (= x16 (_ bv2 8))))
(assert (not (= x16 x18)))
(assert (not (= x16 x26)))
(assert (not (= x16 x27)))
(assert (not (= x16 x28)))
(assert (not (= (_ bv2 8) x18)))
(assert (not (= (_ bv2 8) x26)))
(assert (not (= (_ bv2 8) x27)))
(assert (not (= (_ bv2 8) x28)))
(assert (not (= x18 x26)))
(assert (not (= x18 x27)))
(assert (not (= x18 x28)))
(assert (not (= x26 x27)))
(assert (not (= x26 x28)))
(assert (not (= x27 x28)))
(assert (not (= x30 (_ bv7 8))))
(assert (not (= x30 (_ bv2 8))))
(assert (not (= x30 (_ bv8 8))))
(assert (not (= x30 x41)))
(assert (not (= x30 (_ bv5 8))))
(assert (not (= x30 x50)))
(assert (not (= x30 x51)))
(assert (not (= x30 (_ bv4 8))))
(assert (not (= (_ bv7 8) (_ bv2 8))))
(assert (not (= (_ bv7 8) (_ bv8 8))))
(assert (not (= (_ bv7 8) x41)))
(assert (not (= (_ bv7 8) (_ bv5 8))))
(assert (not (= (_ bv7 8) x50)))
(assert (not (= (_ bv7 8) x51)))
(assert (not (= (_ bv7 8) (_ bv4 8))))
(assert (not (= (_ bv2 8) (_ bv8 8))))
(assert (not (= (_ bv2 8) x41)))
(assert (not (= (_ bv2 8) (_ bv5 8))))
(assert (not (= (_ bv2 8) x50)))
(assert (not (= (_ bv2 8) x51)))
(assert (not (= (_ bv2 8) (_ bv4 8))))
(assert (not (= (_ bv8 8) x41)))
(assert (not (= (_ bv8 8) (_ bv5 8))))
(assert (not (= (_ bv8 8) x50)))
(assert (not (= (_ bv8 8) x51)))
(assert (not (= (_ bv8 8) (_ bv4 8))))
(assert (not (= x41 (_ bv5 8))))
(assert (not (= x41 x50)))
(assert (not (= x41 x51)))
(assert (not (= x41 (_ bv4 8))))
(assert (not (= (_ bv5 8) x50)))
(assert (not (= (_ bv5 8) x51)))
(assert (not (= (_ bv5 8) (_ bv4 8))))
(assert (not (= x50 x51)))
(assert (not (= x50 (_ bv4 8))))
(assert (not (= x51 (_ bv4 8))))
(assert (not (= x33 (_ bv4 8))))
(assert (not (= x33 x35)))
(assert (not (= x33 x43)))
(assert (not (= x33 x44)))
(assert (not (= x33 x45)))
(assert (not (= x33 x53)))
(assert (not (= x33 x54)))
(assert (not (= x33 (_ bv8 8))))
(assert (not (= (_ bv4 8) x35)))
(assert (not (= (_ bv4 8) x43)))
(assert (not (= (_ bv4 8) x44)))
(assert (not (= (_ bv4 8) x45)))
(assert (not (= (_ bv4 8) x53)))
(assert (not (= (_ bv4 8) x54)))
(assert (not (= (_ bv4 8) (_ bv8 8))))
(assert (not (= x35 x43)))
(assert (not (= x35 x44)))
(assert (not (= x35 x45)))
(assert (not (= x35 x53)))
(assert (not (= x35 x54)))
(assert (not (= x35 (_ bv8 8))))
(assert (not (= x43 x44)))
(assert (not (= x43 x45)))
(assert (not (= x43 x53)))
(assert (not (= x43 x54)))
(assert (not (= x43 (_ bv8 8))))
(assert (not (= x44 x45)))
(assert (not (= x44 x53)))
(assert (not (= x44 x54)))
(assert (not (= x44 (_ bv8 8))))
(assert (not (= x45 x53)))
(assert (not (= x45 x54)))
(assert (not (= x45 (_ bv8 8))))
(assert (not (= x53 x54)))
(assert (not (= x53 (_ bv8 8))))
(assert (not (= x54 (_ bv8 8))))
(assert (not (= x36 (_ bv1 8))))
(assert (not (= x36 (_ bv3 8))))
(assert (not (= x36 (_ bv7 8))))
(assert (not (= x36 x47)))
(assert (not (= x36 (_ bv9 8))))
(assert (not (= x36 x56)))
(assert (not (= x36 x57)))
(assert (not (= x36 (_ bv6 8))))
(assert (not (= (_ bv1 8) (_ bv3 8))))
(assert (not (= (_ bv1 8) (_ bv7 8))))
(assert (not (= (_ bv1 8) x47)))
(assert (not (= (_ bv1 8) (_ bv9 8))))
(assert (not (= (_ bv1 8) x56)))
(assert (not (= (_ bv1 8) x57)))
(assert (not (= (_ bv1 8) (_ bv6 8))))
(assert (not (= (_ bv3 8) (_ bv7 8))))
(assert (not (= (_ bv3 8) x47)))
(assert (not (= (_ bv3 8) (_ bv9 8))))
(assert (not (= (_ bv3 8) x56)))
(assert (not (= (_ bv3 8) x57)))
(assert (not (= (_ bv3 8) (_ bv6 8))))
(assert (not (= (_ bv7 8) x47)))
(assert (not (= (_ bv7 8) (_ bv9 8))))
(assert (not (= (_ bv7 8) x56)))
(assert (not (= (_ bv7 8) x57)))
(assert (not (= (_ bv7 8) (_ bv6 8))))
(assert (not (= x47 (_ bv9 8))))
(assert (not (= x47 x56)))
(assert (not (= x47 x57)))
(assert (not (= x47 (_ bv6 8))))
(assert (not (= (_ bv9 8) x56)))
(assert (not (= (_ bv9 8) x57)))
(assert (not (= (_ bv9 8) (_ bv6 8))))
(assert (not (= x56 x57)))
(assert (not (= x56 (_ bv6 8))))
(assert (not (= x57 (_ bv6 8))))
(assert (not (= x60 x61)))
(assert (not (= x60 (_ bv8 8))))
(assert (not (= x60 x70)))
(assert (not (= x60 (_ bv5 8))))
(assert (not (= x60 x72)))
(assert (not (= x60 x80)))
(assert (not (= x60 x81)))
(assert (not (= x60 (_ bv1 8))))
(assert (not (= x61 (_ bv8 8))))
(assert (not (= x61 x70)))
(assert (not (= x61 (_ bv5 8))))
(assert (not (= x61 x72)))
(assert (not (= x61 x80)))
(assert (not (= x61 x81)))
(assert (not (= x61 (_ bv1 8))))
(assert (not (= (_ bv8 8) x70)))
(assert (not (= (_ bv8 8) (_ bv5 8))))
(assert (not (= (_ bv8 8) x72)))
(assert (not (= (_ bv8 8) x80)))
(assert (not (= (_ bv8 8) x81)))
(assert (not (= (_ bv8 8) (_ bv1 8))))
(assert (not (= x70 (_ bv5 8))))
(assert (not (= x70 x72)))
(assert (not (= x70 x80)))
(assert (not (= x70 x81)))
(assert (not (= x70 (_ bv1 8))))
(assert (not (= (_ bv5 8) x72)))
(assert (not (= (_ bv5 8) x80)))
(assert (not (= (_ bv5 8) x81)))
(assert (not (= (_ bv5 8) (_ bv1 8))))
(assert (not (= x72 x80)))
(assert (not (= x72 x81)))
(assert (not (= x72 (_ bv1 8))))
(assert (not (= x80 x81)))
(assert (not (= x80 (_ bv1 8))))
(assert (not (= x81 (_ bv1 8))))
(assert (not (= (_ bv6 8) x64)))
(assert (not (= (_ bv6 8) (_ bv2 8))))
(assert (not (= (_ bv6 8) x73)))
(assert (not (= (_ bv6 8) x74)))
(assert (not (= (_ bv6 8) x75)))
(assert (not (= (_ bv6 8) x83)))
(assert (not (= (_ bv6 8) (_ bv7 8))))
(assert (not (= (_ bv6 8) (_ bv4 8))))
(assert (not (= x64 (_ bv2 8))))
(assert (not (= x64 x73)))
(assert (not (= x64 x74)))
(assert (not (= x64 x75)))
(assert (not (= x64 x83)))
(assert (not (= x64 (_ bv7 8))))
(assert (not (= x64 (_ bv4 8))))
(assert (not (= (_ bv2 8) x73)))
(assert (not (= (_ bv2 8) x74)))
(assert (not (= (_ bv2 8) x75)))
(assert (not (= (_ bv2 8) x83)))
(assert (not (= (_ bv2 8) (_ bv7 8))))
(assert (not (= (_ bv2 8) (_ bv4 8))))
(assert (not (= x73 x74)))
(assert (not (= x73 x75)))
(assert (not (= x73 x83)))
(assert (not (= x73 (_ bv7 8))))
(assert (not (= x73 (_ bv4 8))))
(assert (not (= x74 x75)))
(assert (not (= x74 x83)))
(assert (not (= x74 (_ bv7 8))))
(assert (not (= x74 (_ bv4 8))))
(assert (not (= x75 x83)))
(assert (not (= x75 (_ bv7 8))))
(assert (not (= x75 (_ bv4 8))))
(assert (not (= x83 (_ bv7 8))))
(assert (not (= x83 (_ bv4 8))))
(assert (not (= (_ bv7 8) (_ bv4 8))))
(assert (not (= (_ bv5 8) x67)))
(assert (not (= (_ bv5 8) (_ bv1 8))))
(assert (not (= (_ bv5 8) x76)))
(assert (not (= (_ bv5 8) (_ bv6 8))))
(assert (not (= (_ bv5 8) x78)))
(assert (not (= (_ bv5 8) (_ bv3 8))))
(assert (not (= (_ bv5 8) x87)))
(assert (not (= (_ bv5 8) (_ bv8 8))))
(assert (not (= x67 (_ bv1 8))))
(assert (not (= x67 x76)))
(assert (not (= x67 (_ bv6 8))))
(assert (not (= x67 x78)))
(assert (not (= x67 (_ bv3 8))))
(assert (not (= x67 x87)))
(assert (not (= x67 (_ bv8 8))))
(assert (not (= (_ bv1 8) x76)))
(assert (not (= (_ bv1 8) (_ bv6 8))))
(assert (not (= (_ bv1 8) x78)))
(assert (not (= (_ bv1 8) (_ bv3 8))))
(assert (not (= (_ bv1 8) x87)))
(assert (not (= (_ bv1 8) (_ bv8 8))))
(assert (not (= x76 (_ bv6 8))))
(assert (not (= x76 x78)))
(assert (not (= x76 (_ bv3 8))))
(assert (not (= x76 x87)))
(assert (not (= x76 (_ bv8 8))))
(assert (not (= (_ bv6 8) x78)))
(assert (not (= (_ bv6 8) (_ bv3 8))))
(assert (not (= (_ bv6 8) x87)))
(assert (not (= (_ bv6 8) (_ bv8 8))))
(assert (not (= x78 (_ bv3 8))))
(assert (not (= x78 x87)))
(assert (not (= x78 (_ bv8 8))))
(assert (not (= (_ bv3 8) x87)))
(assert (not (= (_ bv3 8) (_ bv8 8))))
(assert (not (= x87 (_ bv8 8))))
(check-sat)
(exit)
